c Sudoku solution
p cnf 729 0
137 0
199 0
239 0
245 0
278 0
312 0
373 0
431 0
462 0
477 0
493 0
547 0
555 0
591 0
615 0
627 0
485 0
633 0
563 0
664 0
688 0
711 0
835 0
857 0
917 0
871 0
943 0
958 0
961 0
765 0
448 0
989 0
992 0
975 0
395 0
125 0
696 0
672 0
584 0
579 0
456 0
924 0
936 0
429 0
414 0
334 0
819 0
866 0
883 0
723 0
168 0
328 0
221 0
518 0
526 0
532 0
822 0
738 0
898 0
844 0
267 0
294 0
176 0
282 0
181 0
387 0
154 0
253 0
142 0
113 0
216 0
749 0
752 0
346 0
351 0
369 0
641 0
659 0
774 0
797 0
786 0
